80
1891
7
11
87
15
54
50
25
4
0 1
0 2
0 4
0 6
0 7
0 8
0 10
0 11
0 12
0 16
0 17
0 19
0 20
0 21
0 22
0 24
0 26
0 33
0 34
0 35
0 36
0 38
0 39
0 41
0 42
0 43
0 45
0 46
0 47
0 49
0 52
0 53
0 54
0 57
0 61
0 62
0 63
0 65
0 66
0 67
0 69
0 70
0 71
0 73
0 74
0 75
0 76
0 77
0 79
1 4
1 5
1 6
1 7
1 8
1 13
1 14
1 15
1 16
1 17
1 18
1 19
1 21
1 23
1 24
1 27
1 28
1 31
1 32
1 34
1 35
1 37
1 44
1 45
1 46
1 47
1 48
1 50
1 51
1 52
1 53
1 54
1 56
1 60
1 63
1 65
1 66
1 67
1 68
1 69
1 70
1 73
1 74
1 75
1 78
1 79
2 3
2 4
2 5
2 6
2 7
2 8
2 10
2 12
2 15
2 17
2 18
2 22
2 25
2 27
2 28
2 29
2 30
2 31
2 34
2 35
2 37
2 38
2 39
2 41
2 43
2 47
2 48
2 49
2 50
2 51
2 52
2 53
2 55
2 56
2 57
2 58
2 60
2 61
2 62
2 63
2 66
2 67
2 69
2 72
2 75
2 78
2 79
3 4
3 5
3 6
3 8
3 9
3 10
3 12
3 16
3 17
3 18
3 19
3 20
3 21
3 23
3 24
3 25
3 27
3 28
3 29
3 34
3 36
3 37
3 39
3 40
3 41
3 43
3 45
3 46
3 48
3 49
3 51
3 52
3 53
3 54
3 56
3 57
3 58
3 60
3 62
3 66
3 68
3 69
3 70
3 71
3 73
3 74
3 79
4 5
4 7
4 8
4 9
4 10
4 11
4 12
4 13
4 14
4 16
4 19
4 20
4 21
4 22
4 24
4 25
4 27
4 29
4 30
4 33
4 35
4 36
4 37
4 38
4 41
4 42
4 43
4 45
4 46
4 47
4 50
4 53
4 55
4 56
4 57
4 58
4 61
4 64
4 65
4 66
4 67
4 68
4 71
4 72
4 73
4 74
4 76
4 79
5 7
5 9
5 10
5 11
5 12
5 16
5 17
5 18
5 20
5 21
5 25
5 26
5 28
5 29
5 31
5 32
5 33
5 35
5 39
5 44
5 45
5 46
5 47
5 48
5 50
5 53
5 55
5 56
5 57
5 58
5 59
5 61
5 62
5 64
5 69
5 70
5 73
5 76
5 77
5 79
6 7
6 8
6 11
6 12
6 14
6 15
6 16
6 17
6 19
6 20
6 21
6 22
6 23
6 24
6 25
6 27
6 29
6 30
6 32
6 34
6 35
6 36
6 37
6 38
6 39
6 41
6 42
6 43
6 45
6 46
6 47
6 48
6 49
6 52
6 54
6 57
6 59
6 60
6 61
6 63
6 66
6 67
6 70
6 76
6 77
6 78
7 9
7 11
7 12
7 13
7 14
7 16
7 18
7 19
7 20
7 22
7 23
7 27
7 28
7 29
7 31
7 35
7 36
7 37
7 38
7 41
7 43
7 44
7 46
7 48
7 52
7 53
7 54
7 55
7 56
7 57
7 58
7 59
7 61
7 63
7 64
7 65
7 66
7 67
7 71
7 72
7 73
7 74
7 76
7 77
7 78
7 79
8 10
8 11
8 12
8 13
8 14
8 15
8 17
8 18
8 21
8 24
8 25
8 28
8 30
8 31
8 34
8 36
8 40
8 42
8 44
8 46
8 47
8 49
8 50
8 51
8 52
8 53
8 54
8 57
8 58
8 60
8 61
8 64
8 69
8 70
8 71
8 73
8 76
8 77
8 78
8 79
9 10
9 11
9 14
9 16
9 17
9 18
9 22
9 26
9 27
9 29
9 31
9 32
9 33
9 34
9 36
9 37
9 40
9 41
9 42
9 43
9 44
9 45
9 47
9 48
9 50
9 52
9 53
9 55
9 56
9 58
9 59
9 60
9 61
9 63
9 64
9 65
9 66
9 68
9 69
9 70
9 71
9 72
9 75
9 76
9 77
9 79
10 13
10 14
10 15
10 17
10 19
10 20
10 21
10 22
10 24
10 26
10 28
10 30
10 32
10 33
10 34
10 35
10 37
10 38
10 39
10 40
10 41
10 45
10 48
10 49
10 50
10 51
10 52
10 53
10 55
10 60
10 61
10 63
10 70
10 71
10 72
10 74
10 75
10 76
10 77
10 78
11 14
11 15
11 16
11 19
11 20
11 24
11 25
11 26
11 29
11 30
11 32
11 33
11 35
11 38
11 39
11 42
11 45
11 47
11 48
11 49
11 50
11 51
11 53
11 56
11 58
11 64
11 65
11 66
11 68
11 72
11 73
11 75
11 76
11 77
11 78
11 79
12 13
12 15
12 17
12 18
12 19
12 22
12 23
12 24
12 30
12 31
12 33
12 34
12 35
12 37
12 38
12 41
12 42
12 45
12 46
12 47
12 48
12 50
12 51
12 52
12 53
12 54
12 57
12 58
12 62
12 63
12 64
12 65
12 66
12 69
12 70
12 71
12 72
12 73
12 75
12 79
13 14
13 16
13 19
13 20
13 21
13 22
13 24
13 25
13 26
13 27
13 28
13 30
13 31
13 32
13 34
13 38
13 39
13 43
13 44
13 46
13 49
13 52
13 53
13 54
13 56
13 58
13 59
13 60
13 61
13 64
13 66
13 68
13 69
13 70
13 71
13 74
13 75
13 76
13 77
13 78
13 79
14 15
14 16
14 17
14 20
14 22
14 24
14 27
14 29
14 31
14 33
14 36
14 37
14 38
14 39
14 41
14 42
14 43
14 44
14 47
14 48
14 49
14 51
14 52
14 54
14 56
14 61
14 62
14 63
14 64
14 65
14 68
14 73
14 74
14 75
14 76
14 77
14 78
15 16
15 21
15 24
15 26
15 27
15 28
15 29
15 32
15 33
15 34
15 35
15 36
15 37
15 40
15 41
15 43
15 45
15 46
15 47
15 48
15 49
15 52
15 53
15 55
15 58
15 60
15 62
15 63
15 65
15 69
15 70
15 71
15 74
15 75
15 76
15 77
15 79
16 17
16 18
16 19
16 21
16 23
16 24
16 26
16 27
16 28
16 29
16 30
16 33
16 34
16 35
16 36
16 38
16 39
16 40
16 41
16 44
16 45
16 47
16 50
16 52
16 53
16 54
16 57
16 59
16 61
16 62
16 63
16 64
16 65
16 67
16 68
16 69
16 70
16 71
16 74
17 19
17 20
17 22
17 23
17 25
17 27
17 28
17 30
17 31
17 33
17 34
17 35
17 37
17 38
17 39
17 41
17 43
17 47
17 48
17 49
17 54
17 55
17 56
17 57
17 58
17 61
17 62
17 63
17 65
17 66
17 70
17 72
17 73
17 75
17 76
18 25
18 27
18 28
18 29
18 30
18 31
18 34
18 35
18 37
18 38
18 40
18 41
18 43
18 44
18 47
18 48
18 50
18 53
18 55
18 57
18 58
18 60
18 61
18 64
18 65
18 66
18 67
18 69
18 70
18 71
18 72
18 73
18 77
19 20
19 23
19 24
19 25
19 26
19 27
19 29
19 30
19 31
19 33
19 34
19 35
19 36
19 37
19 38
19 39
19 42
19 43
19 44
19 49
19 50
19 51
19 53
19 55
19 58
19 59
19 60
19 61
19 62
19 63
19 64
19 65
19 66
19 67
19 73
19 74
19 75
19 76
19 77
19 78
19 79
20 21
20 22
20 23
20 26
20 28
20 29
20 30
20 31
20 32
20 33
20 36
20 37
20 38
20 39
20 42
20 44
20 48
20 50
20 51
20 54
20 55
20 56
20 57
20 58
20 59
20 60
20 63
20 65
20 66
20 67
20 68
20 70
20 74
20 75
20 76
20 79
21 22
21 23
21 24
21 27
21 28
21 29
21 30
21 31
21 32
21 33
21 34
21 35
21 36
21 37
21 38
21 42
21 43
21 48
21 52
21 53
21 56
21 59
21 60
21 61
21 63
21 64
21 66
21 67
21 68
21 69
21 70
21 71
21 72
21 73
21 74
21 75
21 77
22 25
22 26
22 27
22 28
22 30
22 31
22 32
22 33
22 36
22 37
22 39
22 40
22 45
22 46
22 48
22 49
22 50
22 55
22 58
22 59
22 60
22 61
22 63
22 65
22 67
22 68
22 69
22 70
22 71
22 74
22 75
22 76
22 79
23 24
23 25
23 29
23 31
23 32
23 33
23 35
23 37
23 38
23 39
23 40
23 41
23 42
23 43
23 47
23 48
23 50
23 51
23 52
23 53
23 55
23 56
23 57
23 58
23 60
23 62
23 64
23 65
23 66
23 68
23 71
23 72
23 73
23 74
23 75
23 76
23 77
24 25
24 26
24 28
24 33
24 34
24 36
24 37
24 40
24 43
24 44
24 46
24 49
24 50
24 51
24 52
24 53
24 54
24 58
24 59
24 61
24 63
24 64
24 66
24 68
24 69
24 70
24 72
24 73
24 74
24 75
24 78
24 79
25 26
25 28
25 30
25 31
25 32
25 33
25 34
25 36
25 41
25 42
25 44
25 45
25 50
25 53
25 56
25 57
25 60
25 61
25 62
25 63
25 65
25 68
25 72
25 74
25 75
25 76
25 77
26 27
26 28
26 29
26 31
26 34
26 35
26 37
26 41
26 42
26 44
26 50
26 51
26 52
26 53
26 54
26 55
26 57
26 58
26 60
26 61
26 63
26 64
26 66
26 68
26 72
26 73
26 74
26 75
26 77
27 28
27 29
27 32
27 35
27 36
27 38
27 39
27 40
27 42
27 43
27 45
27 46
27 48
27 52
27 53
27 54
27 56
27 57
27 59
27 60
27 61
27 63
27 65
27 66
27 67
27 68
27 69
27 70
27 71
27 72
27 77
27 78
27 79
28 29
28 30
28 31
28 32
28 33
28 34
28 36
28 37
28 40
28 41
28 42
28 43
28 44
28 45
28 47
28 51
28 53
28 54
28 55
28 57
28 58
28 59
28 60
28 61
28 62
28 63
28 64
28 67
28 68
28 70
28 71
28 72
28 76
28 77
28 78
29 31
29 32
29 33
29 34
29 37
29 40
29 41
29 42
29 43
29 45
29 46
29 47
29 48
29 51
29 52
29 53
29 54
29 57
29 58
29 63
29 65
29 66
29 67
29 69
29 73
29 74
29 75
29 77
29 78
29 79
30 32
30 34
30 35
30 36
30 38
30 41
30 42
30 43
30 45
30 48
30 51
30 52
30 53
30 54
30 56
30 58
30 59
30 60
30 61
30 62
30 63
30 66
30 67
30 68
30 70
30 71
30 73
30 74
30 75
30 76
30 77
30 79
31 33
31 36
31 37
31 39
31 41
31 42
31 49
31 50
31 53
31 59
31 61
31 64
31 67
31 69
31 70
31 73
31 74
31 76
31 78
32 33
32 35
32 37
32 38
32 39
32 40
32 41
32 42
32 43
32 44
32 46
32 47
32 49
32 50
32 51
32 52
32 53
32 58
32 59
32 61
32 62
32 65
32 67
32 70
32 73
32 74
32 75
32 76
32 79
33 36
33 37
33 38
33 43
33 44
33 45
33 46
33 47
33 49
33 50
33 51
33 52
33 56
33 57
33 58
33 59
33 60
33 61
33 62
33 63
33 66
33 68
33 69
33 71
33 73
33 75
33 76
33 77
33 79
34 35
34 36
34 37
34 38
34 39
34 41
34 42
34 43
34 46
34 47
34 48
34 49
34 50
34 52
34 53
34 54
34 55
34 57
34 60
34 61
34 62
34 63
34 65
34 67
34 69
34 70
34 71
34 73
34 75
34 76
34 78
34 79
35 40
35 41
35 42
35 43
35 44
35 50
35 51
35 55
35 56
35 57
35 59
35 60
35 63
35 66
35 67
35 71
35 72
35 73
35 74
35 76
35 78
35 79
36 37
36 38
36 39
36 40
36 41
36 43
36 46
36 48
36 49
36 50
36 53
36 56
36 58
36 60
36 62
36 63
36 64
36 65
36 66
36 67
36 68
36 69
36 71
36 76
37 38
37 39
37 41
37 45
37 46
37 47
37 48
37 49
37 50
37 51
37 53
37 54
37 55
37 56
37 57
37 58
37 59
37 62
37 63
37 64
37 66
37 68
37 69
37 70
37 71
37 72
37 74
37 75
37 79
38 41
38 42
38 43
38 47
38 49
38 50
38 51
38 52
38 53
38 54
38 56
38 58
38 60
38 61
38 62
38 64
38 65
38 67
38 68
38 69
38 70
38 71
38 74
38 76
38 78
38 79
39 42
39 43
39 45
39 47
39 48
39 50
39 51
39 52
39 53
39 54
39 55
39 56
39 57
39 58
39 60
39 64
39 65
39 67
39 72
39 74
39 77
39 79
40 42
40 44
40 45
40 47
40 48
40 49
40 50
40 51
40 52
40 53
40 54
40 55
40 56
40 57
40 58
40 61
40 62
40 63
40 64
40 65
40 67
40 68
40 69
40 70
40 71
40 73
40 74
40 76
40 77
40 78
40 79
41 42
41 45
41 46
41 47
41 53
41 55
41 56
41 57
41 58
41 63
41 66
41 67
41 68
41 71
41 72
41 74
41 76
41 78
41 79
42 43
42 44
42 45
42 47
42 50
42 51
42 52
42 53
42 54
42 55
42 56
42 57
42 58
42 59
42 60
42 61
42 62
42 63
42 65
42 67
42 68
42 69
42 73
42 74
42 75
42 76
43 46
43 47
43 49
43 52
43 53
43 55
43 56
43 57
43 58
43 60
43 62
43 64
43 66
43 67
43 68
43 70
43 71
43 73
43 74
43 75
43 77
43 78
43 79
44 45
44 46
44 47
44 48
44 52
44 53
44 55
44 57
44 59
44 61
44 62
44 63
44 65
44 68
44 70
44 72
44 73
44 76
44 78
44 79
45 46
45 47
45 48
45 49
45 50
45 51
45 53
45 54
45 55
45 57
45 59
45 63
45 64
45 65
45 66
45 67
45 68
45 69
45 70
45 71
45 72
45 74
45 75
45 76
45 78
45 79
46 48
46 49
46 50
46 51
46 52
46 53
46 58
46 59
46 63
46 64
46 66
46 68
46 69
46 70
46 73
46 74
46 78
47 49
47 52
47 53
47 55
47 56
47 57
47 58
47 60
47 63
47 64
47 67
47 69
47 70
47 71
47 72
47 74
47 75
47 76
48 50
48 51
48 53
48 54
48 57
48 58
48 59
48 60
48 62
48 65
48 66
48 67
48 69
48 70
48 73
48 74
48 75
48 76
48 78
49 53
49 54
49 55
49 56
49 58
49 59
49 60
49 61
49 62
49 65
49 66
49 67
49 68
49 69
49 71
49 73
49 74
49 77
49 79
50 51
50 52
50 54
50 55
50 57
50 58
50 59
50 62
50 63
50 66
50 67
50 69
50 70
50 72
50 73
50 75
50 76
50 78
50 79
51 52
51 53
51 58
51 60
51 61
51 64
51 65
51 67
51 69
51 71
51 72
51 73
51 76
51 77
51 78
52 55
52 59
52 60
52 62
52 64
52 65
52 66
52 67
52 69
52 71
52 72
52 74
52 78
53 55
53 58
53 59
53 63
53 64
53 65
53 67
53 68
53 70
53 73
53 75
53 76
53 77
53 78
53 79
54 56
54 59
54 63
54 64
54 65
54 66
54 69
54 71
54 72
54 73
54 74
54 77
54 79
55 56
55 57
55 60
55 61
55 62
55 66
55 68
55 69
55 70
55 72
55 74
55 76
55 77
55 78
55 79
56 61
56 63
56 64
56 65
56 68
56 70
56 71
56 72
56 73
56 74
56 75
56 76
56 77
56 79
57 59
57 61
57 64
57 65
57 67
57 72
57 74
57 75
57 76
57 77
57 79
58 63
58 64
58 65
58 67
58 70
58 71
58 74
58 75
58 77
58 79
59 61
59 62
59 63
59 64
59 65
59 66
59 67
59 70
59 73
59 76
59 78
59 79
60 61
60 63
60 64
60 66
60 68
60 70
60 72
60 73
60 74
60 75
60 76
60 77
60 79
61 62
61 63
61 64
61 71
61 73
61 75
61 78
61 79
62 65
62 67
62 68
62 69
62 71
62 74
62 75
62 76
62 78
63 64
63 65
63 66
63 67
63 68
63 69
63 71
63 76
63 77
63 78
63 79
64 65
64 66
64 68
64 69
64 70
64 71
64 72
64 73
64 75
64 76
64 78
64 79
65 67
65 70
65 71
65 72
65 74
66 72
66 74
66 76
66 79
67 68
67 71
67 72
67 73
67 74
67 75
67 76
67 77
67 78
67 79
68 69
68 70
68 71
68 72
68 73
68 74
68 75
68 76
68 78
69 70
69 71
69 74
69 75
69 76
69 77
69 78
69 79
70 71
70 73
70 79
71 72
71 74
71 75
71 76
71 77
71 78
72 75
72 79
73 74
73 76
73 79
74 75
74 77
74 78
75 79
77 79
78 79
72 67 10 20 33 65 44 37 52 60 55 42
38 11 24 13 51 58 1 32 23 7 3 30
59 62 35 8 29 78 71 25 61 45 5 70
21 14 50 17 77 41 27 49 39 56 54 31
46 69 48 57 74 15 53 0 2 63 28 34
36 4 64 66 76 43 19 75 18 6 22 12
47 9 73 16 79 26 68 40
